/*********************************************
 * OPL 12.6.0.0 Data
 * Author: Adrian Rodriguez Bazaga, Pau Rodriguez Esmerats
 * Creation Date: 06/12/2017 at 23:05:02
 *********************************************/

nNurses=387;
maxConsec=2;
maxPresence=7;
maxHours=5;
minHours=1;
hours=24;
demand= [69 56 81 101 56 81 101 58 53 38 6 14 11 21 11 19 8 15 5 7 44 94 50 75  ];
